HorasDisponibles = 35 ; 		% Cantidad de horas habiles para que barco pueda partir

NumBarcos = 50 ; 		% Cantidad de barcos que cruzaran el canal

NumCanales = 1;  

Velocidades = [ 
66000  ,		%  Barco 1
405  ,		%  Barco 2
269  ,		%  Barco 3
276  ,		%  Barco 4
468  ,		%  Barco 5
551  ,		%  Barco 6
609  ,		%  Barco 7
623  ,		%  Barco 8
259  ,		%  Barco 9
511  ,		%  Barco 10
383  ,		%  Barco 11
629  ,		%  Barco 12
237  ,		%  Barco 13
520  ,		%  Barco 14
565  ,		%  Barco 15
278  ,		%  Barco 16
561  ,		%  Barco 17
618  ,		%  Barco 18
451  ,		%  Barco 19
603  ,		%  Barco 20
499  ,		%  Barco 21
581  ,		%  Barco 22
425  ,		%  Barco 23
531  ,		%  Barco 24
436  ,		%  Barco 25
277  ,		%  Barco 26
699  ,		%  Barco 27
606  ,		%  Barco 28
356  ,		%  Barco 29
507  ,		%  Barco 30
401  ,		%  Barco 31
462  ,		%  Barco 32
832  ,		%  Barco 33
416  ,		%  Barco 34
201  ,		%  Barco 35
289  ,		%  Barco 36
494  ,		%  Barco 37
534  ,		%  Barco 38
634  ,		%  Barco 39
611  ,		%  Barco 40
679  ,		%  Barco 41
549  ,		%  Barco 42
451  ,		%  Barco 43
448  ,		%  Barco 44
411  ,		%  Barco 45
383  ,		%  Barco 46
264  ,		%  Barco 47
564  ,		%  Barco 48
576  ,		%  Barco 49
568  ,		%  Barco 50
496  ,		%  Barco 51
66000  ,		%  Barco 52
 ]; 
HoraEstimadaCruce = [ 
0  ,		%  Barco 1
19  ,		%  Barco 2
19  ,		%  Barco 3
27  ,		%  Barco 4
8  ,		%  Barco 5
14  ,		%  Barco 6
21  ,		%  Barco 7
28  ,		%  Barco 8
34  ,		%  Barco 9
1  ,		%  Barco 10
8  ,		%  Barco 11
15  ,		%  Barco 12
34  ,		%  Barco 13
20  ,		%  Barco 14
26  ,		%  Barco 15
12  ,		%  Barco 16
20  ,		%  Barco 17
28  ,		%  Barco 18
20  ,		%  Barco 19
18  ,		%  Barco 20
17  ,		%  Barco 21
29  ,		%  Barco 22
29  ,		%  Barco 23
2  ,		%  Barco 24
11  ,		%  Barco 25
14  ,		%  Barco 26
33  ,		%  Barco 27
17  ,		%  Barco 28
15  ,		%  Barco 29
13  ,		%  Barco 30
4  ,		%  Barco 31
28  ,		%  Barco 32
9  ,		%  Barco 33
12  ,		%  Barco 34
1  ,		%  Barco 35
25  ,		%  Barco 36
7  ,		%  Barco 37
10  ,		%  Barco 38
16  ,		%  Barco 39
10  ,		%  Barco 40
22  ,		%  Barco 41
23  ,		%  Barco 42
23  ,		%  Barco 43
3  ,		%  Barco 44
15  ,		%  Barco 45
10  ,		%  Barco 46
17  ,		%  Barco 47
28  ,		%  Barco 48
12  ,		%  Barco 49
26  ,		%  Barco 50
3  ,		%  Barco 51
35  ,		%  Barco 52
 ]; 
PuntoDeArranque = [ 
0  ,		%  Barco 1
1  ,		%  Barco 2
1  ,		%  Barco 3
0  ,		%  Barco 4
0  ,		%  Barco 5
0  ,		%  Barco 6
0  ,		%  Barco 7
0  ,		%  Barco 8
0  ,		%  Barco 9
1  ,		%  Barco 10
0  ,		%  Barco 11
0  ,		%  Barco 12
0  ,		%  Barco 13
1  ,		%  Barco 14
0  ,		%  Barco 15
0  ,		%  Barco 16
1  ,		%  Barco 17
1  ,		%  Barco 18
1  ,		%  Barco 19
0  ,		%  Barco 20
0  ,		%  Barco 21
1  ,		%  Barco 22
0  ,		%  Barco 23
1  ,		%  Barco 24
0  ,		%  Barco 25
0  ,		%  Barco 26
1  ,		%  Barco 27
1  ,		%  Barco 28
1  ,		%  Barco 29
1  ,		%  Barco 30
1  ,		%  Barco 31
1  ,		%  Barco 32
0  ,		%  Barco 33
1  ,		%  Barco 34
0  ,		%  Barco 35
0  ,		%  Barco 36
0  ,		%  Barco 37
0  ,		%  Barco 38
1  ,		%  Barco 39
0  ,		%  Barco 40
1  ,		%  Barco 41
0  ,		%  Barco 42
0  ,		%  Barco 43
1  ,		%  Barco 44
0  ,		%  Barco 45
0  ,		%  Barco 46
0  ,		%  Barco 47
0  ,		%  Barco 48
0  ,		%  Barco 49
1  ,		%  Barco 50
0  ,		%  Barco 51
0  ,		%  Barco 52
 ]; 
